100 82433

 498 74
849 61
926 698
917 543
60 219
397 12
257 814
577 415
239 32
801 160
38 237
25 739
410 181
461 829
571 558
988 341
417 458
357 80
383 647
809 772
158 987
569 820
433 759
48 473
328 671
433 715
431 112
56 980
577 292
268 950
69 822
728 631
902 383
601 17
449 493
793 331
257 926
672 739
490 873
746 486
643 406
49 117
659 555
316 880
413 115
434 795
2 549
841 814
952 625
145 547
956 644
366 336
420 336
573 981
785 922
561 889
844 740
444 147
916 122
434 81
643 685
555 666
57 662
562 375
964 570
977 63
178 504
293 668
46 449
170 428
271 868
417 427
848 421
139 322
247 913
148 680
230 166
792 597
637 957
704 649
374 461
80 459
606 189
738 464
65 912
88 379
88 2
713 618
726 364
204 72
913 427
382 638
601 170
476 205
573 825
783 337
606 999
819 472
539 195
214 670
